32      4       
16      11      14      15      
0       0       0       0       0       3       2       4       6       
4       4       1       1       15      2       3       5       
10      3       1       1       1       2       7       10      
9       1       1       8       7       2       7       10      
1       1       8       1       2       3       8       9       10      
6       9       3       7       2       1       7       
5       1       3       1       7       2       8       9       
7       1       4       5       3       1       11      
7       10      1       6       5       1       11      
7       6       4       6       2       1       11      
8       9       4       3       4       2       12      14      
5       5       4       5       4       1       13      
6       4       3       2       4       2       15      16      
2       1       1       6       3       2       16      17      
2       1       8       1       1       2       17      23      
8       2       4       4       6       4       19      20      21      23      
9       1       1       6       1       1       18      
3       13      9       1       11      3       19      20      21      
10      5       1       11      1       2       22      24      
5       6       1       9       2       3       24      25      29      
2       2       1       4       1       3       24      25      29      
4       4       1       1       7       3       25      28      29      
1       1       1       1       1       2       24      29      
7       1       1       1       2       3       26      27      28      
4       9       1       1       3       2       26      27      
3       4       5       1       5       2       30      31      
10      4       5       7       1       2       30      31      
10      1       1       1       1       2       30      31      
5       4       1       2       6       2       30      31      
5       1       3       1       1       1       32      
4       6       1       1       4       1       32      
0       0       0       0       0       0       
